
Gurobi 12.0.2 (win64) logging started Tue Jun  3 13:15:49 2025

Set parameter LogFile to value "C:\Ioana\_uni\honours\slp\algorithm\Main_files\results\paracetamol\Task_003_Sample001_irr_gurobi.log"
Gurobi Optimizer version 12.0.2 build v12.0.2rc0 (win64 - Windows 11.0 (26100.2))

CPU model: Intel(R) Core(TM) Ultra 5 125H, instruction set [SSE2|AVX|AVX2]
Thread count: 14 physical cores, 18 logical processors, using up to 18 threads

Non-default parameters:
TimeLimit  2200

Optimize a model with 47226 rows, 34503 columns and 146690 nonzeros
Model fingerprint: 0x07531efe
Variable types: 17258 continuous, 17245 integer (17245 binary)
Coefficient statistics:
  Matrix range     [1e-04, 8e+04]
  Objective range  [4e-04, 9e-01]
  Bounds range     [1e+00, 1e+03]
  RHS range        [1e+00, 1e+00]
Found heuristic solution: objective 1.9422613
Presolve removed 32934 rows and 23073 columns
Presolve time: 0.42s
Presolved: 14292 rows, 11430 columns, 46482 nonzeros
Variable types: 5669 continuous, 5761 integer (5761 binary)

Root relaxation: objective 3.572120e-02, 2227 iterations, 0.18 seconds (0.33 work units)

    Nodes    |    Current Node    |     Objective Bounds      |     Work
 Expl Unexpl |  Obj  Depth IntInf | Incumbent    BestBd   Gap | It/Node Time

     0     0    0.03572    0    2    1.94226    0.03572  98.2%     -    0s
H    0     0                       0.9169759    0.03572  96.1%     -    0s
H    0     0                       0.1812744    0.03572  80.3%     -    0s
     0     0    0.03572    0    2    0.18127    0.03572  80.3%     -    0s

Explored 1 nodes (2227 simplex iterations) in 0.68 seconds (0.77 work units)
Thread count was 18 (of 18 available processors)

Solution count 3: 0.181274 0.916976 1.94226 

Optimal solution found (tolerance 1.00e-04)
Best objective 1.812743884006e-01, best bound 1.812743884006e-01, gap 0.0000%
